c automorphism group size 10
p cnf 125 3140
1 2 3 4 5 6 7 8 9 10 11 12 13 14 15 16 17 18 19 20 21 22 23 24 25 0
26 27 28 29 30 31 32 33 34 35 36 37 38 39 40 41 42 43 44 45 46 47 48 49 50 0
51 52 53 54 55 56 57 58 59 60 61 62 63 64 65 66 67 68 69 70 71 72 73 74 75 0
76 77 78 79 80 81 82 83 84 85 86 87 88 89 90 91 92 93 94 95 96 97 98 99 100 0
101 102 103 104 105 106 107 108 109 110 111 112 113 114 115 116 117 118 119 120 121 122 123 124 125 0
-1 -2 0
-1 -3 0
-1 -4 0
-1 -5 0
-1 -6 0
-1 -7 0
-1 -8 0
-1 -9 0
-1 -10 0
-1 -11 0
-1 -12 0
-1 -13 0
-1 -14 0
-1 -15 0
-1 -16 0
-1 -17 0
-1 -18 0
-1 -19 0
-1 -20 0
-1 -21 0
-1 -22 0
-1 -23 0
-1 -24 0
-1 -25 0
-2 -3 0
-2 -4 0
-2 -5 0
-2 -6 0
-2 -7 0
-2 -8 0
-2 -9 0
-2 -10 0
-2 -11 0
-2 -12 0
-2 -13 0
-2 -14 0
-2 -15 0
-2 -16 0
-2 -17 0
-2 -18 0
-2 -19 0
-2 -20 0
-2 -21 0
-2 -22 0
-2 -23 0
-2 -24 0
-2 -25 0
-3 -4 0
-3 -5 0
-3 -6 0
-3 -7 0
-3 -8 0
-3 -9 0
-3 -10 0
-3 -11 0
-3 -12 0
-3 -13 0
-3 -14 0
-3 -15 0
-3 -16 0
-3 -17 0
-3 -18 0
-3 -19 0
-3 -20 0
-3 -21 0
-3 -22 0
-3 -23 0
-3 -24 0
-3 -25 0
-4 -5 0
-4 -6 0
-4 -7 0
-4 -8 0
-4 -9 0
-4 -10 0
-4 -11 0
-4 -12 0
-4 -13 0
-4 -14 0
-4 -15 0
-4 -16 0
-4 -17 0
-4 -18 0
-4 -19 0
-4 -20 0
-4 -21 0
-4 -22 0
-4 -23 0
-4 -24 0
-4 -25 0
-5 -6 0
-5 -7 0
-5 -8 0
-5 -9 0
-5 -10 0
-5 -11 0
-5 -12 0
-5 -13 0
-5 -14 0
-5 -15 0
-5 -16 0
-5 -17 0
-5 -18 0
-5 -19 0
-5 -20 0
-5 -21 0
-5 -22 0
-5 -23 0
-5 -24 0
-5 -25 0
-6 -7 0
-6 -8 0
-6 -9 0
-6 -10 0
-6 -11 0
-6 -12 0
-6 -13 0
-6 -14 0
-6 -15 0
-6 -16 0
-6 -17 0
-6 -18 0
-6 -19 0
-6 -20 0
-6 -21 0
-6 -22 0
-6 -23 0
-6 -24 0
-6 -25 0
-7 -8 0
-7 -9 0
-7 -10 0
-7 -11 0
-7 -12 0
-7 -13 0
-7 -14 0
-7 -15 0
-7 -16 0
-7 -17 0
-7 -18 0
-7 -19 0
-7 -20 0
-7 -21 0
-7 -22 0
-7 -23 0
-7 -24 0
-7 -25 0
-8 -9 0
-8 -10 0
-8 -11 0
-8 -12 0
-8 -13 0
-8 -14 0
-8 -15 0
-8 -16 0
-8 -17 0
-8 -18 0
-8 -19 0
-8 -20 0
-8 -21 0
-8 -22 0
-8 -23 0
-8 -24 0
-8 -25 0
-9 -10 0
-9 -11 0
-9 -12 0
-9 -13 0
-9 -14 0
-9 -15 0
-9 -16 0
-9 -17 0
-9 -18 0
-9 -19 0
-9 -20 0
-9 -21 0
-9 -22 0
-9 -23 0
-9 -24 0
-9 -25 0
-10 -11 0
-10 -12 0
-10 -13 0
-10 -14 0
-10 -15 0
-10 -16 0
-10 -17 0
-10 -18 0
-10 -19 0
-10 -20 0
-10 -21 0
-10 -22 0
-10 -23 0
-10 -24 0
-10 -25 0
-11 -12 0
-11 -13 0
-11 -14 0
-11 -15 0
-11 -16 0
-11 -17 0
-11 -18 0
-11 -19 0
-11 -20 0
-11 -21 0
-11 -22 0
-11 -23 0
-11 -24 0
-11 -25 0
-12 -13 0
-12 -14 0
-12 -15 0
-12 -16 0
-12 -17 0
-12 -18 0
-12 -19 0
-12 -20 0
-12 -21 0
-12 -22 0
-12 -23 0
-12 -24 0
-12 -25 0
-13 -14 0
-13 -15 0
-13 -16 0
-13 -17 0
-13 -18 0
-13 -19 0
-13 -20 0
-13 -21 0
-13 -22 0
-13 -23 0
-13 -24 0
-13 -25 0
-14 -15 0
-14 -16 0
-14 -17 0
-14 -18 0
-14 -19 0
-14 -20 0
-14 -21 0
-14 -22 0
-14 -23 0
-14 -24 0
-14 -25 0
-15 -16 0
-15 -17 0
-15 -18 0
-15 -19 0
-15 -20 0
-15 -21 0
-15 -22 0
-15 -23 0
-15 -24 0
-15 -25 0
-16 -17 0
-16 -18 0
-16 -19 0
-16 -20 0
-16 -21 0
-16 -22 0
-16 -23 0
-16 -24 0
-16 -25 0
-17 -18 0
-17 -19 0
-17 -20 0
-17 -21 0
-17 -22 0
-17 -23 0
-17 -24 0
-17 -25 0
-18 -19 0
-18 -20 0
-18 -21 0
-18 -22 0
-18 -23 0
-18 -24 0
-18 -25 0
-19 -20 0
-19 -21 0
-19 -22 0
-19 -23 0
-19 -24 0
-19 -25 0
-20 -21 0
-20 -22 0
-20 -23 0
-20 -24 0
-20 -25 0
-21 -22 0
-21 -23 0
-21 -24 0
-21 -25 0
-22 -23 0
-22 -24 0
-22 -25 0
-23 -24 0
-23 -25 0
-24 -25 0
-26 -27 0
-26 -28 0
-26 -29 0
-26 -30 0
-26 -31 0
-26 -32 0
-26 -33 0
-26 -34 0
-26 -35 0
-26 -36 0
-26 -37 0
-26 -38 0
-26 -39 0
-26 -40 0
-26 -41 0
-26 -42 0
-26 -43 0
-26 -44 0
-26 -45 0
-26 -46 0
-26 -47 0
-26 -48 0
-26 -49 0
-26 -50 0
-27 -28 0
-27 -29 0
-27 -30 0
-27 -31 0
-27 -32 0
-27 -33 0
-27 -34 0
-27 -35 0
-27 -36 0
-27 -37 0
-27 -38 0
-27 -39 0
-27 -40 0
-27 -41 0
-27 -42 0
-27 -43 0
-27 -44 0
-27 -45 0
-27 -46 0
-27 -47 0
-27 -48 0
-27 -49 0
-27 -50 0
-28 -29 0
-28 -30 0
-28 -31 0
-28 -32 0
-28 -33 0
-28 -34 0
-28 -35 0
-28 -36 0
-28 -37 0
-28 -38 0
-28 -39 0
-28 -40 0
-28 -41 0
-28 -42 0
-28 -43 0
-28 -44 0
-28 -45 0
-28 -46 0
-28 -47 0
-28 -48 0
-28 -49 0
-28 -50 0
-29 -30 0
-29 -31 0
-29 -32 0
-29 -33 0
-29 -34 0
-29 -35 0
-29 -36 0
-29 -37 0
-29 -38 0
-29 -39 0
-29 -40 0
-29 -41 0
-29 -42 0
-29 -43 0
-29 -44 0
-29 -45 0
-29 -46 0
-29 -47 0
-29 -48 0
-29 -49 0
-29 -50 0
-30 -31 0
-30 -32 0
-30 -33 0
-30 -34 0
-30 -35 0
-30 -36 0
-30 -37 0
-30 -38 0
-30 -39 0
-30 -40 0
-30 -41 0
-30 -42 0
-30 -43 0
-30 -44 0
-30 -45 0
-30 -46 0
-30 -47 0
-30 -48 0
-30 -49 0
-30 -50 0
-31 -32 0
-31 -33 0
-31 -34 0
-31 -35 0
-31 -36 0
-31 -37 0
-31 -38 0
-31 -39 0
-31 -40 0
-31 -41 0
-31 -42 0
-31 -43 0
-31 -44 0
-31 -45 0
-31 -46 0
-31 -47 0
-31 -48 0
-31 -49 0
-31 -50 0
-32 -33 0
-32 -34 0
-32 -35 0
-32 -36 0
-32 -37 0
-32 -38 0
-32 -39 0
-32 -40 0
-32 -41 0
-32 -42 0
-32 -43 0
-32 -44 0
-32 -45 0
-32 -46 0
-32 -47 0
-32 -48 0
-32 -49 0
-32 -50 0
-33 -34 0
-33 -35 0
-33 -36 0
-33 -37 0
-33 -38 0
-33 -39 0
-33 -40 0
-33 -41 0
-33 -42 0
-33 -43 0
-33 -44 0
-33 -45 0
-33 -46 0
-33 -47 0
-33 -48 0
-33 -49 0
-33 -50 0
-34 -35 0
-34 -36 0
-34 -37 0
-34 -38 0
-34 -39 0
-34 -40 0
-34 -41 0
-34 -42 0
-34 -43 0
-34 -44 0
-34 -45 0
-34 -46 0
-34 -47 0
-34 -48 0
-34 -49 0
-34 -50 0
-35 -36 0
-35 -37 0
-35 -38 0
-35 -39 0
-35 -40 0
-35 -41 0
-35 -42 0
-35 -43 0
-35 -44 0
-35 -45 0
-35 -46 0
-35 -47 0
-35 -48 0
-35 -49 0
-35 -50 0
-36 -37 0
-36 -38 0
-36 -39 0
-36 -40 0
-36 -41 0
-36 -42 0
-36 -43 0
-36 -44 0
-36 -45 0
-36 -46 0
-36 -47 0
-36 -48 0
-36 -49 0
-36 -50 0
-37 -38 0
-37 -39 0
-37 -40 0
-37 -41 0
-37 -42 0
-37 -43 0
-37 -44 0
-37 -45 0
-37 -46 0
-37 -47 0
-37 -48 0
-37 -49 0
-37 -50 0
-38 -39 0
-38 -40 0
-38 -41 0
-38 -42 0
-38 -43 0
-38 -44 0
-38 -45 0
-38 -46 0
-38 -47 0
-38 -48 0
-38 -49 0
-38 -50 0
-39 -40 0
-39 -41 0
-39 -42 0
-39 -43 0
-39 -44 0
-39 -45 0
-39 -46 0
-39 -47 0
-39 -48 0
-39 -49 0
-39 -50 0
-40 -41 0
-40 -42 0
-40 -43 0
-40 -44 0
-40 -45 0
-40 -46 0
-40 -47 0
-40 -48 0
-40 -49 0
-40 -50 0
-41 -42 0
-41 -43 0
-41 -44 0
-41 -45 0
-41 -46 0
-41 -47 0
-41 -48 0
-41 -49 0
-41 -50 0
-42 -43 0
-42 -44 0
-42 -45 0
-42 -46 0
-42 -47 0
-42 -48 0
-42 -49 0
-42 -50 0
-43 -44 0
-43 -45 0
-43 -46 0
-43 -47 0
-43 -48 0
-43 -49 0
-43 -50 0
-44 -45 0
-44 -46 0
-44 -47 0
-44 -48 0
-44 -49 0
-44 -50 0
-45 -46 0
-45 -47 0
-45 -48 0
-45 -49 0
-45 -50 0
-46 -47 0
-46 -48 0
-46 -49 0
-46 -50 0
-47 -48 0
-47 -49 0
-47 -50 0
-48 -49 0
-48 -50 0
-49 -50 0
-51 -52 0
-51 -53 0
-51 -54 0
-51 -55 0
-51 -56 0
-51 -57 0
-51 -58 0
-51 -59 0
-51 -60 0
-51 -61 0
-51 -62 0
-51 -63 0
-51 -64 0
-51 -65 0
-51 -66 0
-51 -67 0
-51 -68 0
-51 -69 0
-51 -70 0
-51 -71 0
-51 -72 0
-51 -73 0
-51 -74 0
-51 -75 0
-52 -53 0
-52 -54 0
-52 -55 0
-52 -56 0
-52 -57 0
-52 -58 0
-52 -59 0
-52 -60 0
-52 -61 0
-52 -62 0
-52 -63 0
-52 -64 0
-52 -65 0
-52 -66 0
-52 -67 0
-52 -68 0
-52 -69 0
-52 -70 0
-52 -71 0
-52 -72 0
-52 -73 0
-52 -74 0
-52 -75 0
-53 -54 0
-53 -55 0
-53 -56 0
-53 -57 0
-53 -58 0
-53 -59 0
-53 -60 0
-53 -61 0
-53 -62 0
-53 -63 0
-53 -64 0
-53 -65 0
-53 -66 0
-53 -67 0
-53 -68 0
-53 -69 0
-53 -70 0
-53 -71 0
-53 -72 0
-53 -73 0
-53 -74 0
-53 -75 0
-54 -55 0
-54 -56 0
-54 -57 0
-54 -58 0
-54 -59 0
-54 -60 0
-54 -61 0
-54 -62 0
-54 -63 0
-54 -64 0
-54 -65 0
-54 -66 0
-54 -67 0
-54 -68 0
-54 -69 0
-54 -70 0
-54 -71 0
-54 -72 0
-54 -73 0
-54 -74 0
-54 -75 0
-55 -56 0
-55 -57 0
-55 -58 0
-55 -59 0
-55 -60 0
-55 -61 0
-55 -62 0
-55 -63 0
-55 -64 0
-55 -65 0
-55 -66 0
-55 -67 0
-55 -68 0
-55 -69 0
-55 -70 0
-55 -71 0
-55 -72 0
-55 -73 0
-55 -74 0
-55 -75 0
-56 -57 0
-56 -58 0
-56 -59 0
-56 -60 0
-56 -61 0
-56 -62 0
-56 -63 0
-56 -64 0
-56 -65 0
-56 -66 0
-56 -67 0
-56 -68 0
-56 -69 0
-56 -70 0
-56 -71 0
-56 -72 0
-56 -73 0
-56 -74 0
-56 -75 0
-57 -58 0
-57 -59 0
-57 -60 0
-57 -61 0
-57 -62 0
-57 -63 0
-57 -64 0
-57 -65 0
-57 -66 0
-57 -67 0
-57 -68 0
-57 -69 0
-57 -70 0
-57 -71 0
-57 -72 0
-57 -73 0
-57 -74 0
-57 -75 0
-58 -59 0
-58 -60 0
-58 -61 0
-58 -62 0
-58 -63 0
-58 -64 0
-58 -65 0
-58 -66 0
-58 -67 0
-58 -68 0
-58 -69 0
-58 -70 0
-58 -71 0
-58 -72 0
-58 -73 0
-58 -74 0
-58 -75 0
-59 -60 0
-59 -61 0
-59 -62 0
-59 -63 0
-59 -64 0
-59 -65 0
-59 -66 0
-59 -67 0
-59 -68 0
-59 -69 0
-59 -70 0
-59 -71 0
-59 -72 0
-59 -73 0
-59 -74 0
-59 -75 0
-60 -61 0
-60 -62 0
-60 -63 0
-60 -64 0
-60 -65 0
-60 -66 0
-60 -67 0
-60 -68 0
-60 -69 0
-60 -70 0
-60 -71 0
-60 -72 0
-60 -73 0
-60 -74 0
-60 -75 0
-61 -62 0
-61 -63 0
-61 -64 0
-61 -65 0
-61 -66 0
-61 -67 0
-61 -68 0
-61 -69 0
-61 -70 0
-61 -71 0
-61 -72 0
-61 -73 0
-61 -74 0
-61 -75 0
-62 -63 0
-62 -64 0
-62 -65 0
-62 -66 0
-62 -67 0
-62 -68 0
-62 -69 0
-62 -70 0
-62 -71 0
-62 -72 0
-62 -73 0
-62 -74 0
-62 -75 0
-63 -64 0
-63 -65 0
-63 -66 0
-63 -67 0
-63 -68 0
-63 -69 0
-63 -70 0
-63 -71 0
-63 -72 0
-63 -73 0
-63 -74 0
-63 -75 0
-64 -65 0
-64 -66 0
-64 -67 0
-64 -68 0
-64 -69 0
-64 -70 0
-64 -71 0
-64 -72 0
-64 -73 0
-64 -74 0
-64 -75 0
-65 -66 0
-65 -67 0
-65 -68 0
-65 -69 0
-65 -70 0
-65 -71 0
-65 -72 0
-65 -73 0
-65 -74 0
-65 -75 0
-66 -67 0
-66 -68 0
-66 -69 0
-66 -70 0
-66 -71 0
-66 -72 0
-66 -73 0
-66 -74 0
-66 -75 0
-67 -68 0
-67 -69 0
-67 -70 0
-67 -71 0
-67 -72 0
-67 -73 0
-67 -74 0
-67 -75 0
-68 -69 0
-68 -70 0
-68 -71 0
-68 -72 0
-68 -73 0
-68 -74 0
-68 -75 0
-69 -70 0
-69 -71 0
-69 -72 0
-69 -73 0
-69 -74 0
-69 -75 0
-70 -71 0
-70 -72 0
-70 -73 0
-70 -74 0
-70 -75 0
-71 -72 0
-71 -73 0
-71 -74 0
-71 -75 0
-72 -73 0
-72 -74 0
-72 -75 0
-73 -74 0
-73 -75 0
-74 -75 0
-76 -77 0
-76 -78 0
-76 -79 0
-76 -80 0
-76 -81 0
-76 -82 0
-76 -83 0
-76 -84 0
-76 -85 0
-76 -86 0
-76 -87 0
-76 -88 0
-76 -89 0
-76 -90 0
-76 -91 0
-76 -92 0
-76 -93 0
-76 -94 0
-76 -95 0
-76 -96 0
-76 -97 0
-76 -98 0
-76 -99 0
-76 -100 0
-77 -78 0
-77 -79 0
-77 -80 0
-77 -81 0
-77 -82 0
-77 -83 0
-77 -84 0
-77 -85 0
-77 -86 0
-77 -87 0
-77 -88 0
-77 -89 0
-77 -90 0
-77 -91 0
-77 -92 0
-77 -93 0
-77 -94 0
-77 -95 0
-77 -96 0
-77 -97 0
-77 -98 0
-77 -99 0
-77 -100 0
-78 -79 0
-78 -80 0
-78 -81 0
-78 -82 0
-78 -83 0
-78 -84 0
-78 -85 0
-78 -86 0
-78 -87 0
-78 -88 0
-78 -89 0
-78 -90 0
-78 -91 0
-78 -92 0
-78 -93 0
-78 -94 0
-78 -95 0
-78 -96 0
-78 -97 0
-78 -98 0
-78 -99 0
-78 -100 0
-79 -80 0
-79 -81 0
-79 -82 0
-79 -83 0
-79 -84 0
-79 -85 0
-79 -86 0
-79 -87 0
-79 -88 0
-79 -89 0
-79 -90 0
-79 -91 0
-79 -92 0
-79 -93 0
-79 -94 0
-79 -95 0
-79 -96 0
-79 -97 0
-79 -98 0
-79 -99 0
-79 -100 0
-80 -81 0
-80 -82 0
-80 -83 0
-80 -84 0
-80 -85 0
-80 -86 0
-80 -87 0
-80 -88 0
-80 -89 0
-80 -90 0
-80 -91 0
-80 -92 0
-80 -93 0
-80 -94 0
-80 -95 0
-80 -96 0
-80 -97 0
-80 -98 0
-80 -99 0
-80 -100 0
-81 -82 0
-81 -83 0
-81 -84 0
-81 -85 0
-81 -86 0
-81 -87 0
-81 -88 0
-81 -89 0
-81 -90 0
-81 -91 0
-81 -92 0
-81 -93 0
-81 -94 0
-81 -95 0
-81 -96 0
-81 -97 0
-81 -98 0
-81 -99 0
-81 -100 0
-82 -83 0
-82 -84 0
-82 -85 0
-82 -86 0
-82 -87 0
-82 -88 0
-82 -89 0
-82 -90 0
-82 -91 0
-82 -92 0
-82 -93 0
-82 -94 0
-82 -95 0
-82 -96 0
-82 -97 0
-82 -98 0
-82 -99 0
-82 -100 0
-83 -84 0
-83 -85 0
-83 -86 0
-83 -87 0
-83 -88 0
-83 -89 0
-83 -90 0
-83 -91 0
-83 -92 0
-83 -93 0
-83 -94 0
-83 -95 0
-83 -96 0
-83 -97 0
-83 -98 0
-83 -99 0
-83 -100 0
-84 -85 0
-84 -86 0
-84 -87 0
-84 -88 0
-84 -89 0
-84 -90 0
-84 -91 0
-84 -92 0
-84 -93 0
-84 -94 0
-84 -95 0
-84 -96 0
-84 -97 0
-84 -98 0
-84 -99 0
-84 -100 0
-85 -86 0
-85 -87 0
-85 -88 0
-85 -89 0
-85 -90 0
-85 -91 0
-85 -92 0
-85 -93 0
-85 -94 0
-85 -95 0
-85 -96 0
-85 -97 0
-85 -98 0
-85 -99 0
-85 -100 0
-86 -87 0
-86 -88 0
-86 -89 0
-86 -90 0
-86 -91 0
-86 -92 0
-86 -93 0
-86 -94 0
-86 -95 0
-86 -96 0
-86 -97 0
-86 -98 0
-86 -99 0
-86 -100 0
-87 -88 0
-87 -89 0
-87 -90 0
-87 -91 0
-87 -92 0
-87 -93 0
-87 -94 0
-87 -95 0
-87 -96 0
-87 -97 0
-87 -98 0
-87 -99 0
-87 -100 0
-88 -89 0
-88 -90 0
-88 -91 0
-88 -92 0
-88 -93 0
-88 -94 0
-88 -95 0
-88 -96 0
-88 -97 0
-88 -98 0
-88 -99 0
-88 -100 0
-89 -90 0
-89 -91 0
-89 -92 0
-89 -93 0
-89 -94 0
-89 -95 0
-89 -96 0
-89 -97 0
-89 -98 0
-89 -99 0
-89 -100 0
-90 -91 0
-90 -92 0
-90 -93 0
-90 -94 0
-90 -95 0
-90 -96 0
-90 -97 0
-90 -98 0
-90 -99 0
-90 -100 0
-91 -92 0
-91 -93 0
-91 -94 0
-91 -95 0
-91 -96 0
-91 -97 0
-91 -98 0
-91 -99 0
-91 -100 0
-92 -93 0
-92 -94 0
-92 -95 0
-92 -96 0
-92 -97 0
-92 -98 0
-92 -99 0
-92 -100 0
-93 -94 0
-93 -95 0
-93 -96 0
-93 -97 0
-93 -98 0
-93 -99 0
-93 -100 0
-94 -95 0
-94 -96 0
-94 -97 0
-94 -98 0
-94 -99 0
-94 -100 0
-95 -96 0
-95 -97 0
-95 -98 0
-95 -99 0
-95 -100 0
-96 -97 0
-96 -98 0
-96 -99 0
-96 -100 0
-97 -98 0
-97 -99 0
-97 -100 0
-98 -99 0
-98 -100 0
-99 -100 0
-101 -102 0
-101 -103 0
-101 -104 0
-101 -105 0
-101 -106 0
-101 -107 0
-101 -108 0
-101 -109 0
-101 -110 0
-101 -111 0
-101 -112 0
-101 -113 0
-101 -114 0
-101 -115 0
-101 -116 0
-101 -117 0
-101 -118 0
-101 -119 0
-101 -120 0
-101 -121 0
-101 -122 0
-101 -123 0
-101 -124 0
-101 -125 0
-102 -103 0
-102 -104 0
-102 -105 0
-102 -106 0
-102 -107 0
-102 -108 0
-102 -109 0
-102 -110 0
-102 -111 0
-102 -112 0
-102 -113 0
-102 -114 0
-102 -115 0
-102 -116 0
-102 -117 0
-102 -118 0
-102 -119 0
-102 -120 0
-102 -121 0
-102 -122 0
-102 -123 0
-102 -124 0
-102 -125 0
-103 -104 0
-103 -105 0
-103 -106 0
-103 -107 0
-103 -108 0
-103 -109 0
-103 -110 0
-103 -111 0
-103 -112 0
-103 -113 0
-103 -114 0
-103 -115 0
-103 -116 0
-103 -117 0
-103 -118 0
-103 -119 0
-103 -120 0
-103 -121 0
-103 -122 0
-103 -123 0
-103 -124 0
-103 -125 0
-104 -105 0
-104 -106 0
-104 -107 0
-104 -108 0
-104 -109 0
-104 -110 0
-104 -111 0
-104 -112 0
-104 -113 0
-104 -114 0
-104 -115 0
-104 -116 0
-104 -117 0
-104 -118 0
-104 -119 0
-104 -120 0
-104 -121 0
-104 -122 0
-104 -123 0
-104 -124 0
-104 -125 0
-105 -106 0
-105 -107 0
-105 -108 0
-105 -109 0
-105 -110 0
-105 -111 0
-105 -112 0
-105 -113 0
-105 -114 0
-105 -115 0
-105 -116 0
-105 -117 0
-105 -118 0
-105 -119 0
-105 -120 0
-105 -121 0
-105 -122 0
-105 -123 0
-105 -124 0
-105 -125 0
-106 -107 0
-106 -108 0
-106 -109 0
-106 -110 0
-106 -111 0
-106 -112 0
-106 -113 0
-106 -114 0
-106 -115 0
-106 -116 0
-106 -117 0
-106 -118 0
-106 -119 0
-106 -120 0
-106 -121 0
-106 -122 0
-106 -123 0
-106 -124 0
-106 -125 0
-107 -108 0
-107 -109 0
-107 -110 0
-107 -111 0
-107 -112 0
-107 -113 0
-107 -114 0
-107 -115 0
-107 -116 0
-107 -117 0
-107 -118 0
-107 -119 0
-107 -120 0
-107 -121 0
-107 -122 0
-107 -123 0
-107 -124 0
-107 -125 0
-108 -109 0
-108 -110 0
-108 -111 0
-108 -112 0
-108 -113 0
-108 -114 0
-108 -115 0
-108 -116 0
-108 -117 0
-108 -118 0
-108 -119 0
-108 -120 0
-108 -121 0
-108 -122 0
-108 -123 0
-108 -124 0
-108 -125 0
-109 -110 0
-109 -111 0
-109 -112 0
-109 -113 0
-109 -114 0
-109 -115 0
-109 -116 0
-109 -117 0
-109 -118 0
-109 -119 0
-109 -120 0
-109 -121 0
-109 -122 0
-109 -123 0
-109 -124 0
-109 -125 0
-110 -111 0
-110 -112 0
-110 -113 0
-110 -114 0
-110 -115 0
-110 -116 0
-110 -117 0
-110 -118 0
-110 -119 0
-110 -120 0
-110 -121 0
-110 -122 0
-110 -123 0
-110 -124 0
-110 -125 0
-111 -112 0
-111 -113 0
-111 -114 0
-111 -115 0
-111 -116 0
-111 -117 0
-111 -118 0
-111 -119 0
-111 -120 0
-111 -121 0
-111 -122 0
-111 -123 0
-111 -124 0
-111 -125 0
-112 -113 0
-112 -114 0
-112 -115 0
-112 -116 0
-112 -117 0
-112 -118 0
-112 -119 0
-112 -120 0
-112 -121 0
-112 -122 0
-112 -123 0
-112 -124 0
-112 -125 0
-113 -114 0
-113 -115 0
-113 -116 0
-113 -117 0
-113 -118 0
-113 -119 0
-113 -120 0
-113 -121 0
-113 -122 0
-113 -123 0
-113 -124 0
-113 -125 0
-114 -115 0
-114 -116 0
-114 -117 0
-114 -118 0
-114 -119 0
-114 -120 0
-114 -121 0
-114 -122 0
-114 -123 0
-114 -124 0
-114 -125 0
-115 -116 0
-115 -117 0
-115 -118 0
-115 -119 0
-115 -120 0
-115 -121 0
-115 -122 0
-115 -123 0
-115 -124 0
-115 -125 0
-116 -117 0
-116 -118 0
-116 -119 0
-116 -120 0
-116 -121 0
-116 -122 0
-116 -123 0
-116 -124 0
-116 -125 0
-117 -118 0
-117 -119 0
-117 -120 0
-117 -121 0
-117 -122 0
-117 -123 0
-117 -124 0
-117 -125 0
-118 -119 0
-118 -120 0
-118 -121 0
-118 -122 0
-118 -123 0
-118 -124 0
-118 -125 0
-119 -120 0
-119 -121 0
-119 -122 0
-119 -123 0
-119 -124 0
-119 -125 0
-120 -121 0
-120 -122 0
-120 -123 0
-120 -124 0
-120 -125 0
-121 -122 0
-121 -123 0
-121 -124 0
-121 -125 0
-122 -123 0
-122 -124 0
-122 -125 0
-123 -124 0
-123 -125 0
-124 -125 0
-1 -26 0
-1 -27 0
-2 -26 0
-1 -31 0
-6 -26 0
-1 -33 0
-8 -26 0
-1 -35 0
-10 -26 0
-1 -36 0
-11 -26 0
-1 -38 0
-13 -26 0
-1 -40 0
-15 -26 0
-1 -41 0
-16 -26 0
-1 -43 0
-18 -26 0
-1 -45 0
-20 -26 0
-1 -46 0
-21 -26 0
-1 -48 0
-23 -26 0
-1 -50 0
-25 -26 0
-2 -27 0
-2 -31 0
-6 -27 0
-2 -32 0
-7 -27 0
-2 -35 0
-10 -27 0
-2 -36 0
-11 -27 0
-2 -37 0
-12 -27 0
-2 -38 0
-13 -27 0
-2 -39 0
-14 -27 0
-2 -40 0
-15 -27 0
-2 -42 0
-17 -27 0
-2 -44 0
-19 -27 0
-2 -48 0
-23 -27 0
-2 -49 0
-24 -27 0
-3 -28 0
-3 -33 0
-8 -28 0
-3 -34 0
-9 -28 0
-3 -36 0
-11 -28 0
-3 -37 0
-12 -28 0
-3 -40 0
-15 -28 0
-3 -41 0
-16 -28 0
-3 -42 0
-17 -28 0
-3 -43 0
-18 -28 0
-3 -44 0
-19 -28 0
-3 -45 0
-20 -28 0
-3 -47 0
-22 -28 0
-3 -49 0
-24 -28 0
-4 -29 0
-4 -32 0
-7 -29 0
-4 -34 0
-9 -29 0
-4 -38 0
-13 -29 0
-4 -39 0
-14 -29 0
-4 -41 0
-16 -29 0
-4 -42 0
-17 -29 0
-4 -45 0
-20 -29 0
-4 -46 0
-21 -29 0
-4 -47 0
-22 -29 0
-4 -48 0
-23 -29 0
-4 -49 0
-24 -29 0
-4 -50 0
-25 -29 0
-5 -30 0
-5 -31 0
-6 -30 0
-5 -32 0
-7 -30 0
-5 -33 0
-8 -30 0
-5 -34 0
-9 -30 0
-5 -35 0
-10 -30 0
-5 -37 0
-12 -30 0
-5 -39 0
-14 -30 0
-5 -43 0
-18 -30 0
-5 -44 0
-19 -30 0
-5 -46 0
-21 -30 0
-5 -47 0
-22 -30 0
-5 -50 0
-25 -30 0
-6 -31 0
-6 -34 0
-9 -31 0
-6 -35 0
-10 -31 0
-6 -36 0
-11 -31 0
-6 -41 0
-16 -31 0
-6 -42 0
-17 -31 0
-6 -44 0
-19 -31 0
-6 -46 0
-21 -31 0
-6 -47 0
-22 -31 0
-6 -48 0
-23 -31 0
-7 -32 0
-7 -33 0
-8 -32 0
-7 -34 0
-9 -32 0
-7 -36 0
-11 -32 0
-7 -38 0
-13 -32 0
-7 -39 0
-14 -32 0
-7 -40 0
-15 -32 0
-7 -41 0
-16 -32 0
-7 -44 0
-19 -32 0
-7 -50 0
-25 -32 0
-8 -33 0
-8 -36 0
-11 -33 0
-8 -38 0
-13 -33 0
-8 -43 0
-18 -33 0
-8 -44 0
-19 -33 0
-8 -47 0
-22 -33 0
-8 -48 0
-23 -33 0
-8 -49 0
-24 -33 0
-8 -50 0
-25 -33 0
-9 -34 0
-9 -35 0
-10 -34 0
-9 -38 0
-13 -34 0
-9 -40 0
-15 -34 0
-9 -41 0
-16 -34 0
-9 -42 0
-17 -34 0
-9 -43 0
-18 -34 0
-9 -47 0
-22 -34 0
-10 -35 0
-10 -37 0
-12 -35 0
-10 -38 0
-13 -35 0
-10 -40 0
-15 -35 0
-10 -45 0
-20 -35 0
-10 -47 0
-22 -35 0
-10 -49 0
-24 -35 0
-10 -50 0
-25 -35 0
-11 -36 0
-11 -39 0
-14 -36 0
-11 -40 0
-15 -36 0
-11 -41 0
-16 -36 0
-11 -46 0
-21 -36 0
-11 -47 0
-22 -36 0
-11 -49 0
-24 -36 0
-12 -37 0
-12 -38 0
-13 -37 0
-12 -39 0
-14 -37 0
-12 -41 0
-16 -37 0
-12 -43 0
-18 -37 0
-12 -44 0
-19 -37 0
-12 -45 0
-20 -37 0
-12 -46 0
-21 -37 0
-12 -49 0
-24 -37 0
-13 -38 0
-13 -41 0
-16 -38 0
-13 -43 0
-18 -38 0
-13 -48 0
-23 -38 0
-13 -49 0
-24 -38 0
-14 -39 0
-14 -40 0
-15 -39 0
-14 -43 0
-18 -39 0
-14 -45 0
-20 -39 0
-14 -46 0
-21 -39 0
-14 -47 0
-22 -39 0
-14 -48 0
-23 -39 0
-15 -40 0
-15 -42 0
-17 -40 0
-15 -43 0
-18 -40 0
-15 -45 0
-20 -40 0
-15 -50 0
-25 -40 0
-16 -41 0
-16 -44 0
-19 -41 0
-16 -45 0
-20 -41 0
-16 -46 0
-21 -41 0
-17 -42 0
-17 -43 0
-18 -42 0
-17 -44 0
-19 -42 0
-17 -46 0
-21 -42 0
-17 -48 0
-23 -42 0
-17 -49 0
-24 -42 0
-17 -50 0
-25 -42 0
-18 -43 0
-18 -46 0
-21 -43 0
-18 -48 0
-23 -43 0
-19 -44 0
-19 -45 0
-20 -44 0
-19 -48 0
-23 -44 0
-19 -50 0
-25 -44 0
-20 -45 0
-20 -47 0
-22 -45 0
-20 -48 0
-23 -45 0
-20 -50 0
-25 -45 0
-21 -46 0
-21 -49 0
-24 -46 0
-21 -50 0
-25 -46 0
-22 -47 0
-22 -48 0
-23 -47 0
-22 -49 0
-24 -47 0
-23 -48 0
-24 -49 0
-24 -50 0
-25 -49 0
-25 -50 0
-26 -51 0
-26 -52 0
-27 -51 0
-26 -56 0
-31 -51 0
-26 -58 0
-33 -51 0
-26 -60 0
-35 -51 0
-26 -61 0
-36 -51 0
-26 -63 0
-38 -51 0
-26 -65 0
-40 -51 0
-26 -66 0
-41 -51 0
-26 -68 0
-43 -51 0
-26 -70 0
-45 -51 0
-26 -71 0
-46 -51 0
-26 -73 0
-48 -51 0
-26 -75 0
-50 -51 0
-27 -52 0
-27 -56 0
-31 -52 0
-27 -57 0
-32 -52 0
-27 -60 0
-35 -52 0
-27 -61 0
-36 -52 0
-27 -62 0
-37 -52 0
-27 -63 0
-38 -52 0
-27 -64 0
-39 -52 0
-27 -65 0
-40 -52 0
-27 -67 0
-42 -52 0
-27 -69 0
-44 -52 0
-27 -73 0
-48 -52 0
-27 -74 0
-49 -52 0
-28 -53 0
-28 -58 0
-33 -53 0
-28 -59 0
-34 -53 0
-28 -61 0
-36 -53 0
-28 -62 0
-37 -53 0
-28 -65 0
-40 -53 0
-28 -66 0
-41 -53 0
-28 -67 0
-42 -53 0
-28 -68 0
-43 -53 0
-28 -69 0
-44 -53 0
-28 -70 0
-45 -53 0
-28 -72 0
-47 -53 0
-28 -74 0
-49 -53 0
-29 -54 0
-29 -57 0
-32 -54 0
-29 -59 0
-34 -54 0
-29 -63 0
-38 -54 0
-29 -64 0
-39 -54 0
-29 -66 0
-41 -54 0
-29 -67 0
-42 -54 0
-29 -70 0
-45 -54 0
-29 -71 0
-46 -54 0
-29 -72 0
-47 -54 0
-29 -73 0
-48 -54 0
-29 -74 0
-49 -54 0
-29 -75 0
-50 -54 0
-30 -55 0
-30 -56 0
-31 -55 0
-30 -57 0
-32 -55 0
-30 -58 0
-33 -55 0
-30 -59 0
-34 -55 0
-30 -60 0
-35 -55 0
-30 -62 0
-37 -55 0
-30 -64 0
-39 -55 0
-30 -68 0
-43 -55 0
-30 -69 0
-44 -55 0
-30 -71 0
-46 -55 0
-30 -72 0
-47 -55 0
-30 -75 0
-50 -55 0
-31 -56 0
-31 -59 0
-34 -56 0
-31 -60 0
-35 -56 0
-31 -61 0
-36 -56 0
-31 -66 0
-41 -56 0
-31 -67 0
-42 -56 0
-31 -69 0
-44 -56 0
-31 -71 0
-46 -56 0
-31 -72 0
-47 -56 0
-31 -73 0
-48 -56 0
-32 -57 0
-32 -58 0
-33 -57 0
-32 -59 0
-34 -57 0
-32 -61 0
-36 -57 0
-32 -63 0
-38 -57 0
-32 -64 0
-39 -57 0
-32 -65 0
-40 -57 0
-32 -66 0
-41 -57 0
-32 -69 0
-44 -57 0
-32 -75 0
-50 -57 0
-33 -58 0
-33 -61 0
-36 -58 0
-33 -63 0
-38 -58 0
-33 -68 0
-43 -58 0
-33 -69 0
-44 -58 0
-33 -72 0
-47 -58 0
-33 -73 0
-48 -58 0
-33 -74 0
-49 -58 0
-33 -75 0
-50 -58 0
-34 -59 0
-34 -60 0
-35 -59 0
-34 -63 0
-38 -59 0
-34 -65 0
-40 -59 0
-34 -66 0
-41 -59 0
-34 -67 0
-42 -59 0
-34 -68 0
-43 -59 0
-34 -72 0
-47 -59 0
-35 -60 0
-35 -62 0
-37 -60 0
-35 -63 0
-38 -60 0
-35 -65 0
-40 -60 0
-35 -70 0
-45 -60 0
-35 -72 0
-47 -60 0
-35 -74 0
-49 -60 0
-35 -75 0
-50 -60 0
-36 -61 0
-36 -64 0
-39 -61 0
-36 -65 0
-40 -61 0
-36 -66 0
-41 -61 0
-36 -71 0
-46 -61 0
-36 -72 0
-47 -61 0
-36 -74 0
-49 -61 0
-37 -62 0
-37 -63 0
-38 -62 0
-37 -64 0
-39 -62 0
-37 -66 0
-41 -62 0
-37 -68 0
-43 -62 0
-37 -69 0
-44 -62 0
-37 -70 0
-45 -62 0
-37 -71 0
-46 -62 0
-37 -74 0
-49 -62 0
-38 -63 0
-38 -66 0
-41 -63 0
-38 -68 0
-43 -63 0
-38 -73 0
-48 -63 0
-38 -74 0
-49 -63 0
-39 -64 0
-39 -65 0
-40 -64 0
-39 -68 0
-43 -64 0
-39 -70 0
-45 -64 0
-39 -71 0
-46 -64 0
-39 -72 0
-47 -64 0
-39 -73 0
-48 -64 0
-40 -65 0
-40 -67 0
-42 -65 0
-40 -68 0
-43 -65 0
-40 -70 0
-45 -65 0
-40 -75 0
-50 -65 0
-41 -66 0
-41 -69 0
-44 -66 0
-41 -70 0
-45 -66 0
-41 -71 0
-46 -66 0
-42 -67 0
-42 -68 0
-43 -67 0
-42 -69 0
-44 -67 0
-42 -71 0
-46 -67 0
-42 -73 0
-48 -67 0
-42 -74 0
-49 -67 0
-42 -75 0
-50 -67 0
-43 -68 0
-43 -71 0
-46 -68 0
-43 -73 0
-48 -68 0
-44 -69 0
-44 -70 0
-45 -69 0
-44 -73 0
-48 -69 0
-44 -75 0
-50 -69 0
-45 -70 0
-45 -72 0
-47 -70 0
-45 -73 0
-48 -70 0
-45 -75 0
-50 -70 0
-46 -71 0
-46 -74 0
-49 -71 0
-46 -75 0
-50 -71 0
-47 -72 0
-47 -73 0
-48 -72 0
-47 -74 0
-49 -72 0
-48 -73 0
-49 -74 0
-49 -75 0
-50 -74 0
-50 -75 0
-51 -76 0
-51 -77 0
-52 -76 0
-51 -81 0
-56 -76 0
-51 -83 0
-58 -76 0
-51 -85 0
-60 -76 0
-51 -86 0
-61 -76 0
-51 -88 0
-63 -76 0
-51 -90 0
-65 -76 0
-51 -91 0
-66 -76 0
-51 -93 0
-68 -76 0
-51 -95 0
-70 -76 0
-51 -96 0
-71 -76 0
-51 -98 0
-73 -76 0
-51 -100 0
-75 -76 0
-52 -77 0
-52 -81 0
-56 -77 0
-52 -82 0
-57 -77 0
-52 -85 0
-60 -77 0
-52 -86 0
-61 -77 0
-52 -87 0
-62 -77 0
-52 -88 0
-63 -77 0
-52 -89 0
-64 -77 0
-52 -90 0
-65 -77 0
-52 -92 0
-67 -77 0
-52 -94 0
-69 -77 0
-52 -98 0
-73 -77 0
-52 -99 0
-74 -77 0
-53 -78 0
-53 -83 0
-58 -78 0
-53 -84 0
-59 -78 0
-53 -86 0
-61 -78 0
-53 -87 0
-62 -78 0
-53 -90 0
-65 -78 0
-53 -91 0
-66 -78 0
-53 -92 0
-67 -78 0
-53 -93 0
-68 -78 0
-53 -94 0
-69 -78 0
-53 -95 0
-70 -78 0
-53 -97 0
-72 -78 0
-53 -99 0
-74 -78 0
-54 -79 0
-54 -82 0
-57 -79 0
-54 -84 0
-59 -79 0
-54 -88 0
-63 -79 0
-54 -89 0
-64 -79 0
-54 -91 0
-66 -79 0
-54 -92 0
-67 -79 0
-54 -95 0
-70 -79 0
-54 -96 0
-71 -79 0
-54 -97 0
-72 -79 0
-54 -98 0
-73 -79 0
-54 -99 0
-74 -79 0
-54 -100 0
-75 -79 0
-55 -80 0
-55 -81 0
-56 -80 0
-55 -82 0
-57 -80 0
-55 -83 0
-58 -80 0
-55 -84 0
-59 -80 0
-55 -85 0
-60 -80 0
-55 -87 0
-62 -80 0
-55 -89 0
-64 -80 0
-55 -93 0
-68 -80 0
-55 -94 0
-69 -80 0
-55 -96 0
-71 -80 0
-55 -97 0
-72 -80 0
-55 -100 0
-75 -80 0
-56 -81 0
-56 -84 0
-59 -81 0
-56 -85 0
-60 -81 0
-56 -86 0
-61 -81 0
-56 -91 0
-66 -81 0
-56 -92 0
-67 -81 0
-56 -94 0
-69 -81 0
-56 -96 0
-71 -81 0
-56 -97 0
-72 -81 0
-56 -98 0
-73 -81 0
-57 -82 0
-57 -83 0
-58 -82 0
-57 -84 0
-59 -82 0
-57 -86 0
-61 -82 0
-57 -88 0
-63 -82 0
-57 -89 0
-64 -82 0
-57 -90 0
-65 -82 0
-57 -91 0
-66 -82 0
-57 -94 0
-69 -82 0
-57 -100 0
-75 -82 0
-58 -83 0
-58 -86 0
-61 -83 0
-58 -88 0
-63 -83 0
-58 -93 0
-68 -83 0
-58 -94 0
-69 -83 0
-58 -97 0
-72 -83 0
-58 -98 0
-73 -83 0
-58 -99 0
-74 -83 0
-58 -100 0
-75 -83 0
-59 -84 0
-59 -85 0
-60 -84 0
-59 -88 0
-63 -84 0
-59 -90 0
-65 -84 0
-59 -91 0
-66 -84 0
-59 -92 0
-67 -84 0
-59 -93 0
-68 -84 0
-59 -97 0
-72 -84 0
-60 -85 0
-60 -87 0
-62 -85 0
-60 -88 0
-63 -85 0
-60 -90 0
-65 -85 0
-60 -95 0
-70 -85 0
-60 -97 0
-72 -85 0
-60 -99 0
-74 -85 0
-60 -100 0
-75 -85 0
-61 -86 0
-61 -89 0
-64 -86 0
-61 -90 0
-65 -86 0
-61 -91 0
-66 -86 0
-61 -96 0
-71 -86 0
-61 -97 0
-72 -86 0
-61 -99 0
-74 -86 0
-62 -87 0
-62 -88 0
-63 -87 0
-62 -89 0
-64 -87 0
-62 -91 0
-66 -87 0
-62 -93 0
-68 -87 0
-62 -94 0
-69 -87 0
-62 -95 0
-70 -87 0
-62 -96 0
-71 -87 0
-62 -99 0
-74 -87 0
-63 -88 0
-63 -91 0
-66 -88 0
-63 -93 0
-68 -88 0
-63 -98 0
-73 -88 0
-63 -99 0
-74 -88 0
-64 -89 0
-64 -90 0
-65 -89 0
-64 -93 0
-68 -89 0
-64 -95 0
-70 -89 0
-64 -96 0
-71 -89 0
-64 -97 0
-72 -89 0
-64 -98 0
-73 -89 0
-65 -90 0
-65 -92 0
-67 -90 0
-65 -93 0
-68 -90 0
-65 -95 0
-70 -90 0
-65 -100 0
-75 -90 0
-66 -91 0
-66 -94 0
-69 -91 0
-66 -95 0
-70 -91 0
-66 -96 0
-71 -91 0
-67 -92 0
-67 -93 0
-68 -92 0
-67 -94 0
-69 -92 0
-67 -96 0
-71 -92 0
-67 -98 0
-73 -92 0
-67 -99 0
-74 -92 0
-67 -100 0
-75 -92 0
-68 -93 0
-68 -96 0
-71 -93 0
-68 -98 0
-73 -93 0
-69 -94 0
-69 -95 0
-70 -94 0
-69 -98 0
-73 -94 0
-69 -100 0
-75 -94 0
-70 -95 0
-70 -97 0
-72 -95 0
-70 -98 0
-73 -95 0
-70 -100 0
-75 -95 0
-71 -96 0
-71 -99 0
-74 -96 0
-71 -100 0
-75 -96 0
-72 -97 0
-72 -98 0
-73 -97 0
-72 -99 0
-74 -97 0
-73 -98 0
-74 -99 0
-74 -100 0
-75 -99 0
-75 -100 0
-76 -101 0
-76 -102 0
-77 -101 0
-76 -106 0
-81 -101 0
-76 -108 0
-83 -101 0
-76 -110 0
-85 -101 0
-76 -111 0
-86 -101 0
-76 -113 0
-88 -101 0
-76 -115 0
-90 -101 0
-76 -116 0
-91 -101 0
-76 -118 0
-93 -101 0
-76 -120 0
-95 -101 0
-76 -121 0
-96 -101 0
-76 -123 0
-98 -101 0
-76 -125 0
-100 -101 0
-77 -102 0
-77 -106 0
-81 -102 0
-77 -107 0
-82 -102 0
-77 -110 0
-85 -102 0
-77 -111 0
-86 -102 0
-77 -112 0
-87 -102 0
-77 -113 0
-88 -102 0
-77 -114 0
-89 -102 0
-77 -115 0
-90 -102 0
-77 -117 0
-92 -102 0
-77 -119 0
-94 -102 0
-77 -123 0
-98 -102 0
-77 -124 0
-99 -102 0
-78 -103 0
-78 -108 0
-83 -103 0
-78 -109 0
-84 -103 0
-78 -111 0
-86 -103 0
-78 -112 0
-87 -103 0
-78 -115 0
-90 -103 0
-78 -116 0
-91 -103 0
-78 -117 0
-92 -103 0
-78 -118 0
-93 -103 0
-78 -119 0
-94 -103 0
-78 -120 0
-95 -103 0
-78 -122 0
-97 -103 0
-78 -124 0
-99 -103 0
-79 -104 0
-79 -107 0
-82 -104 0
-79 -109 0
-84 -104 0
-79 -113 0
-88 -104 0
-79 -114 0
-89 -104 0
-79 -116 0
-91 -104 0
-79 -117 0
-92 -104 0
-79 -120 0
-95 -104 0
-79 -121 0
-96 -104 0
-79 -122 0
-97 -104 0
-79 -123 0
-98 -104 0
-79 -124 0
-99 -104 0
-79 -125 0
-100 -104 0
-80 -105 0
-80 -106 0
-81 -105 0
-80 -107 0
-82 -105 0
-80 -108 0
-83 -105 0
-80 -109 0
-84 -105 0
-80 -110 0
-85 -105 0
-80 -112 0
-87 -105 0
-80 -114 0
-89 -105 0
-80 -118 0
-93 -105 0
-80 -119 0
-94 -105 0
-80 -121 0
-96 -105 0
-80 -122 0
-97 -105 0
-80 -125 0
-100 -105 0
-81 -106 0
-81 -109 0
-84 -106 0
-81 -110 0
-85 -106 0
-81 -111 0
-86 -106 0
-81 -116 0
-91 -106 0
-81 -117 0
-92 -106 0
-81 -119 0
-94 -106 0
-81 -121 0
-96 -106 0
-81 -122 0
-97 -106 0
-81 -123 0
-98 -106 0
-82 -107 0
-82 -108 0
-83 -107 0
-82 -109 0
-84 -107 0
-82 -111 0
-86 -107 0
-82 -113 0
-88 -107 0
-82 -114 0
-89 -107 0
-82 -115 0
-90 -107 0
-82 -116 0
-91 -107 0
-82 -119 0
-94 -107 0
-82 -125 0
-100 -107 0
-83 -108 0
-83 -111 0
-86 -108 0
-83 -113 0
-88 -108 0
-83 -118 0
-93 -108 0
-83 -119 0
-94 -108 0
-83 -122 0
-97 -108 0
-83 -123 0
-98 -108 0
-83 -124 0
-99 -108 0
-83 -125 0
-100 -108 0
-84 -109 0
-84 -110 0
-85 -109 0
-84 -113 0
-88 -109 0
-84 -115 0
-90 -109 0
-84 -116 0
-91 -109 0
-84 -117 0
-92 -109 0
-84 -118 0
-93 -109 0
-84 -122 0
-97 -109 0
-85 -110 0
-85 -112 0
-87 -110 0
-85 -113 0
-88 -110 0
-85 -115 0
-90 -110 0
-85 -120 0
-95 -110 0
-85 -122 0
-97 -110 0
-85 -124 0
-99 -110 0
-85 -125 0
-100 -110 0
-86 -111 0
-86 -114 0
-89 -111 0
-86 -115 0
-90 -111 0
-86 -116 0
-91 -111 0
-86 -121 0
-96 -111 0
-86 -122 0
-97 -111 0
-86 -124 0
-99 -111 0
-87 -112 0
-87 -113 0
-88 -112 0
-87 -114 0
-89 -112 0
-87 -116 0
-91 -112 0
-87 -118 0
-93 -112 0
-87 -119 0
-94 -112 0
-87 -120 0
-95 -112 0
-87 -121 0
-96 -112 0
-87 -124 0
-99 -112 0
-88 -113 0
-88 -116 0
-91 -113 0
-88 -118 0
-93 -113 0
-88 -123 0
-98 -113 0
-88 -124 0
-99 -113 0
-89 -114 0
-89 -115 0
-90 -114 0
-89 -118 0
-93 -114 0
-89 -120 0
-95 -114 0
-89 -121 0
-96 -114 0
-89 -122 0
-97 -114 0
-89 -123 0
-98 -114 0
-90 -115 0
-90 -117 0
-92 -115 0
-90 -118 0
-93 -115 0
-90 -120 0
-95 -115 0
-90 -125 0
-100 -115 0
-91 -116 0
-91 -119 0
-94 -116 0
-91 -120 0
-95 -116 0
-91 -121 0
-96 -116 0
-92 -117 0
-92 -118 0
-93 -117 0
-92 -119 0
-94 -117 0
-92 -121 0
-96 -117 0
-92 -123 0
-98 -117 0
-92 -124 0
-99 -117 0
-92 -125 0
-100 -117 0
-93 -118 0
-93 -121 0
-96 -118 0
-93 -123 0
-98 -118 0
-94 -119 0
-94 -120 0
-95 -119 0
-94 -123 0
-98 -119 0
-94 -125 0
-100 -119 0
-95 -120 0
-95 -122 0
-97 -120 0
-95 -123 0
-98 -120 0
-95 -125 0
-100 -120 0
-96 -121 0
-96 -124 0
-99 -121 0
-96 -125 0
-100 -121 0
-97 -122 0
-97 -123 0
-98 -122 0
-97 -124 0
-99 -122 0
-98 -123 0
-99 -124 0
-99 -125 0
-100 -124 0
-100 -125 0
-1 -101 0
-1 -102 0
-2 -101 0
-1 -106 0
-6 -101 0
-1 -108 0
-8 -101 0
-1 -110 0
-10 -101 0
-1 -111 0
-11 -101 0
-1 -113 0
-13 -101 0
-1 -115 0
-15 -101 0
-1 -116 0
-16 -101 0
-1 -118 0
-18 -101 0
-1 -120 0
-20 -101 0
-1 -121 0
-21 -101 0
-1 -123 0
-23 -101 0
-1 -125 0
-25 -101 0
-2 -102 0
-2 -106 0
-6 -102 0
-2 -107 0
-7 -102 0
-2 -110 0
-10 -102 0
-2 -111 0
-11 -102 0
-2 -112 0
-12 -102 0
-2 -113 0
-13 -102 0
-2 -114 0
-14 -102 0
-2 -115 0
-15 -102 0
-2 -117 0
-17 -102 0
-2 -119 0
-19 -102 0
-2 -123 0
-23 -102 0
-2 -124 0
-24 -102 0
-3 -103 0
-3 -108 0
-8 -103 0
-3 -109 0
-9 -103 0
-3 -111 0
-11 -103 0
-3 -112 0
-12 -103 0
-3 -115 0
-15 -103 0
-3 -116 0
-16 -103 0
-3 -117 0
-17 -103 0
-3 -118 0
-18 -103 0
-3 -119 0
-19 -103 0
-3 -120 0
-20 -103 0
-3 -122 0
-22 -103 0
-3 -124 0
-24 -103 0
-4 -104 0
-4 -107 0
-7 -104 0
-4 -109 0
-9 -104 0
-4 -113 0
-13 -104 0
-4 -114 0
-14 -104 0
-4 -116 0
-16 -104 0
-4 -117 0
-17 -104 0
-4 -120 0
-20 -104 0
-4 -121 0
-21 -104 0
-4 -122 0
-22 -104 0
-4 -123 0
-23 -104 0
-4 -124 0
-24 -104 0
-4 -125 0
-25 -104 0
-5 -105 0
-5 -106 0
-6 -105 0
-5 -107 0
-7 -105 0
-5 -108 0
-8 -105 0
-5 -109 0
-9 -105 0
-5 -110 0
-10 -105 0
-5 -112 0
-12 -105 0
-5 -114 0
-14 -105 0
-5 -118 0
-18 -105 0
-5 -119 0
-19 -105 0
-5 -121 0
-21 -105 0
-5 -122 0
-22 -105 0
-5 -125 0
-25 -105 0
-6 -106 0
-6 -109 0
-9 -106 0
-6 -110 0
-10 -106 0
-6 -111 0
-11 -106 0
-6 -116 0
-16 -106 0
-6 -117 0
-17 -106 0
-6 -119 0
-19 -106 0
-6 -121 0
-21 -106 0
-6 -122 0
-22 -106 0
-6 -123 0
-23 -106 0
-7 -107 0
-7 -108 0
-8 -107 0
-7 -109 0
-9 -107 0
-7 -111 0
-11 -107 0
-7 -113 0
-13 -107 0
-7 -114 0
-14 -107 0
-7 -115 0
-15 -107 0
-7 -116 0
-16 -107 0
-7 -119 0
-19 -107 0
-7 -125 0
-25 -107 0
-8 -108 0
-8 -111 0
-11 -108 0
-8 -113 0
-13 -108 0
-8 -118 0
-18 -108 0
-8 -119 0
-19 -108 0
-8 -122 0
-22 -108 0
-8 -123 0
-23 -108 0
-8 -124 0
-24 -108 0
-8 -125 0
-25 -108 0
-9 -109 0
-9 -110 0
-10 -109 0
-9 -113 0
-13 -109 0
-9 -115 0
-15 -109 0
-9 -116 0
-16 -109 0
-9 -117 0
-17 -109 0
-9 -118 0
-18 -109 0
-9 -122 0
-22 -109 0
-10 -110 0
-10 -112 0
-12 -110 0
-10 -113 0
-13 -110 0
-10 -115 0
-15 -110 0
-10 -120 0
-20 -110 0
-10 -122 0
-22 -110 0
-10 -124 0
-24 -110 0
-10 -125 0
-25 -110 0
-11 -111 0
-11 -114 0
-14 -111 0
-11 -115 0
-15 -111 0
-11 -116 0
-16 -111 0
-11 -121 0
-21 -111 0
-11 -122 0
-22 -111 0
-11 -124 0
-24 -111 0
-12 -112 0
-12 -113 0
-13 -112 0
-12 -114 0
-14 -112 0
-12 -116 0
-16 -112 0
-12 -118 0
-18 -112 0
-12 -119 0
-19 -112 0
-12 -120 0
-20 -112 0
-12 -121 0
-21 -112 0
-12 -124 0
-24 -112 0
-13 -113 0
-13 -116 0
-16 -113 0
-13 -118 0
-18 -113 0
-13 -123 0
-23 -113 0
-13 -124 0
-24 -113 0
-14 -114 0
-14 -115 0
-15 -114 0
-14 -118 0
-18 -114 0
-14 -120 0
-20 -114 0
-14 -121 0
-21 -114 0
-14 -122 0
-22 -114 0
-14 -123 0
-23 -114 0
-15 -115 0
-15 -117 0
-17 -115 0
-15 -118 0
-18 -115 0
-15 -120 0
-20 -115 0
-15 -125 0
-25 -115 0
-16 -116 0
-16 -119 0
-19 -116 0
-16 -120 0
-20 -116 0
-16 -121 0
-21 -116 0
-17 -117 0
-17 -118 0
-18 -117 0
-17 -119 0
-19 -117 0
-17 -121 0
-21 -117 0
-17 -123 0
-23 -117 0
-17 -124 0
-24 -117 0
-17 -125 0
-25 -117 0
-18 -118 0
-18 -121 0
-21 -118 0
-18 -123 0
-23 -118 0
-19 -119 0
-19 -120 0
-20 -119 0
-19 -123 0
-23 -119 0
-19 -125 0
-25 -119 0
-20 -120 0
-20 -122 0
-22 -120 0
-20 -123 0
-23 -120 0
-20 -125 0
-25 -120 0
-21 -121 0
-21 -124 0
-24 -121 0
-21 -125 0
-25 -121 0
-22 -122 0
-22 -123 0
-23 -122 0
-22 -124 0
-24 -122 0
-23 -123 0
-24 -124 0
-24 -125 0
-25 -124 0
-25 -125 0
